s td 1419 2 1740
b 1 1
b 2 2
b 3 3 754
b 4 753 754
b 5 754
b 6 4
b 7 5 1229
b 8 1229 1230
b 9 911 912
b 10 6 911
b 11 6 1428
b 12 7
b 13 8
b 14 9
b 15 10
b 16 11 654
b 17 653 654
b 18 654
b 19 12 906
b 20 12 755
b 21 755 756
b 22 13 756
b 23 13 1645
b 24 14
b 25 15
b 26 16
b 27 17 833
b 28 18
b 29 19
b 30 20
b 31 22 1294
b 32 1293 1294
b 33 21 1293
b 34 21 1420
b 35 23 1648
b 36 24 573
b 37 25
b 38 26
b 39 27 1551
b 40 28
b 41 29 494
b 42 30
b 43 31 1129
b 44 31 1649
b 45 1649 1650
b 46 32 1567
b 47 33 1568
b 48 1567 1568
b 49 1568
b 50 34 509
b 51 509 510
b 52 35 1147
b 53 1147 1148
b 54 36 587
b 55 495 496
b 56 37 495
b 57 37 1279
b 58 1279 1280
b 59 38
b 60 39 1031
b 61 1031 1032
b 62 40
b 63 41 1269
b 64 42 889
b 65 43
b 66 44
b 67 45 1366
b 68 45 1633
b 69 1633 1634
b 70 46 875
b 71 47 1071
b 72 1071 1072
b 73 48
b 74 49 1096
b 75 1095 1096
b 76 1096
b 77 50 1073
b 78 50 1248
b 79 51
b 80 52 1529
b 81 53 1530
b 82 54 799
b 83 54 1088
b 84 55 1355
b 85 56 868
b 86 56 1579
b 87 553 554
b 88 57 553
b 89 57 1469
b 90 58
b 91 59 1210
b 92 60 1358
b 93 61
b 94 62 1109
b 95 63 1110
b 96 64 690
b 97 65 1111
b 98 1111 1112
b 99 66 1553
b 100 67
b 101 68
b 102 69 1635
b 103 70 891
b 104 70 1216
b 105 1215 1216
b 106 1216
b 107 71
b 108 72 819
b 109 73 820
b 110 819 820
b 111 820
b 112 74 818
b 113 75 1271
b 114 75 1739
b 115 1593 1594
b 116 76 1594
b 117 76 1603
b 118 1433 1434
b 119 77 1433
b 120 77 1604
b 121 78 1345
b 122 79 1346
b 123 80
b 124 112 471
b 125 112 1180
b 126 81 727
b 127 81 1179
b 128 1179 1180
b 129 1180
b 130 82
b 131 83
b 132 639 640
b 133 84 640
b 134 84 1250
b 135 85 1021
b 136 85 1398
b 137 1397 1398
b 138 1398
b 139 86
b 140 1181 1182
b 141 87 1181
b 142 87 1637
b 143 1637 1638
b 144 88
b 145 89 712
b 146 90
b 147 91 579
b 148 579 580
b 149 92 458
b 150 93 469
b 151 93 500
b 152 94 1623
b 153 1623 1624
b 154 95 1149
b 155 96
b 156 97
b 157 98 757
b 158 98 1304
b 159 99 1471
b 160 100
b 161 101 1117
b 162 101 1281
b 163 102 1573
b 164 102 1704
b 165 103 837
b 166 1359 1360
b 167 103 1359
b 168 103 1574
b 169 104
b 170 105
b 171 106 498
b 172 107 1161
b 173 107 1274
b 174 1273 1274
b 175 1274
b 176 108 1454
b 177 109 1569
b 178 110 1618
b 179 1617 1618
b 180 1618
b 181 111 745
b 182 111 959
b 183 959 960
b 184 113 1377
b 185 114 1212
b 186 1211 1212
b 187 1212
b 188 115 824
b 189 115 1331
b 190 116 1332
b 191 117 1455
b 192 118 1024
b 193 119 1539
b 194 120 1540
b 195 1539 1540
b 196 1540
b 197 121 1421
b 198 122
b 199 123
b 200 124
b 201 125 1555
b 202 1555 1556
b 203 126
b 204 127 1253
b 205 128 1254
b 206 160 504
b 207 160 606
b 208 605 606
b 209 129 605
b 210 747 748
b 211 129 747
b 212 129 1232
b 213 1231 1232
b 214 1232
b 215 130 1415
b 216 131 1416
b 217 1415 1416
b 218 1416
b 219 132 1625
b 220 133 1077
b 221 133 1626
b 222 1625 1626
b 223 1626
b 224 134 714
b 225 134 729
b 226 166 1714
b 227 1403 1404
b 228 135 1403
b 229 135 1713
b 230 1713 1714
b 231 1714
b 232 136
b 233 137
b 234 138 1162
b 235 139
b 236 140 765
b 237 140 1570
b 238 141
b 239 142
b 240 143 1715
b 241 144
b 242 145 1361
b 243 146
b 244 147
b 245 148 1334
b 246 148 1456
b 247 149
b 248 150
b 249 151 1499
b 250 1499 1500
b 251 152
b 252 153 1572
b 253 154
b 254 155 521
b 255 156
b 256 157 625
b 257 158 626
b 258 158 914
b 259 159
b 260 161
b 261 162 1446
b 262 163 1251
b 263 164
b 264 165 1335
b 265 167 1348
b 266 1347 1348
b 267 1348
b 268 168 1056
b 269 1055 1056
b 270 1056
b 271 169 1058
b 272 997 998
b 273 170 998
b 274 170 1671
b 275 171
b 276 172 981
b 277 981 982
b 278 173
b 279 174 1013
b 280 174 1168
b 281 174 1716
b 282 673 674
b 283 175 673
b 284 677 678
b 285 206 678
b 286 206 926
b 287 925 926
b 288 175 925
b 289 175 1014
b 290 176 1362
b 291 176 1483
b 292 177
b 293 178 852
b 294 851 852
b 295 852
b 296 179 452
b 297 473 474
b 298 179 473
b 299 179 1371
b 300 1371 1372
b 301 180
b 302 181
b 303 182 589
b 304 182 1586
b 305 183 590
b 306 184 946
b 307 184 1727
b 308 185 1673
b 309 186 749
b 310 187 750
b 311 749 750
b 312 750
b 313 188 828
b 314 827 828
b 315 828
b 316 189 526
b 317 190 620
b 318 191 459
b 319 191 1448
b 320 1447 1448
b 321 1448
b 322 192
b 323 193
b 324 194
b 325 195 1000
b 326 999 1000
b 327 1000
b 328 196 768
b 329 197
b 330 198 1260
b 331 1259 1260
b 332 1260
b 333 199 1079
b 334 199 1202
b 335 200 1061
b 336 201 1062
b 337 202 692
b 338 691 692
b 339 692
b 340 203
b 341 204 595
b 342 205
b 343 207
b 344 208
b 345 209 1033
b 346 1033 1034
b 347 210
b 348 211 829
b 349 211 1239
b 350 212 830
b 351 213
b 352 214
b 353 215 1439
b 354 216 480
b 355 216 1203
b 356 216 1674
b 357 217
b 358 218 832
b 359 219
b 360 220 1155
b 361 221 1156
b 362 221 1235
b 363 222 1620
b 364 223 949
b 365 1025 1026
b 366 225 1025
b 367 225 1082
b 368 1081 1082
b 369 224 1081
b 370 224 1186
b 371 226 706
b 372 226 1656
b 373 1655 1656
b 374 1656
b 375 461 462
b 376 227 461
b 377 227 1577
b 378 228 1205
b 379 228 1578
b 380 229 1206
b 381 230 880
b 382 231
b 383 232 1396
b 384 233 1207
b 385 234
b 386 235
b 387 236 1486
b 388 237 535
b 389 238
b 390 239
b 391 240 662
b 392 241 1681
b 393 242
b 394 1187 1188
b 395 243 1187
b 396 243 1661
b 397 244
b 398 245
b 399 246 915
b 400 247 916
b 401 915 916
b 402 916
b 403 248 583
b 404 248 780
b 405 779 780
b 406 780
b 407 249 721
b 408 721 722
b 409 250
b 410 251 701
b 411 701 702
b 412 252 1016
b 413 252 1236
b 414 1423 1424
b 415 253 1423
b 416 253 1560
b 417 254 950
b 418 1621 1622
b 419 255 1621
b 420 255 1688
b 421 256
b 422 257
b 423 759 760
b 424 258 759
b 425 258 1676
b 426 259 703
b 427 259 1193
b 428 1193 1194
b 429 260
b 430 261
b 431 262 1418
b 432 1417 1418
b 433 1418
b 434 263
b 435 264 907
b 436 907 908
b 437 265 908
b 438 265 1425
b 439 679 680
b 440 266 679
b 441 266 952
b 442 951 952
b 443 952
b 444 267 551
b 445 268 552
b 446 268 1473
b 447 1473 1474
b 448 269 1027
b 449 1027 1028
b 450 270
b 451 271
b 452 272 1351
b 453 1351 1352
b 454 273
b 455 274 743
b 456 275 744
b 457 276 1706
b 458 277 1393
b 459 1063 1064
b 460 278 1063
b 461 278 1394
b 462 1393 1394
b 463 1394
b 464 279
b 465 280 1595
b 466 281 1221
b 467 282
b 468 283
b 469 284 1385
b 470 284 1718
b 471 285 1386
b 472 286
b 473 287 682
b 474 288 1502
b 475 289 1122
b 476 1121 1122
b 477 1122
b 478 290 1114
b 479 291 954
b 480 291 1017
b 481 1017 1018
b 482 292 723
b 483 657 658
b 484 294 658
b 485 294 644
b 486 643 644
b 487 293 643
b 488 293 1195
b 489 295 1049
b 490 1049 1050
b 491 296
b 492 297 1712
b 493 298 1264
b 494 299 1561
b 495 1349 1350
b 496 300 1350
b 497 300 1562
b 498 301 927
b 499 301 1731
b 500 302 599
b 501 303 600
b 502 599 600
b 503 600
b 504 304
b 505 305 467
b 506 305 918
b 507 305 1459
b 508 306 468
b 509 306 1040
b 510 307 1101
b 511 308
b 512 309
b 513 310 1734
b 514 1733 1734
b 515 1734
b 516 311 1085
b 517 312 1086
b 518 1085 1086
b 519 1086
b 520 313 1297
b 521 313 1721
b 522 1721 1722
b 523 314
b 524 315
b 525 316 1410
b 526 317 733
b 527 318 506
b 528 318 735
b 529 319 736
b 530 319 935
b 531 320 962
b 532 321
b 533 322 1506
b 534 1505 1506
b 535 1506
b 536 323 843
b 537 324 627
b 538 324 630
b 539 325 709
b 540 709 710
b 541 326
b 542 327 1475
b 543 1489 1490
b 544 327 1489
b 545 327 1564
b 546 1563 1564
b 547 1564
b 548 328
b 549 329 1612
b 550 1611 1612
b 551 1612
b 552 330
b 553 331
b 554 332 987
b 555 987 988
b 556 333
b 557 334 1627
b 558 335 1628
b 559 1627 1628
b 560 1628
b 561 336
b 562 368 482
b 563 481 482
b 564 337 481
b 565 337 863
b 566 337 1492
b 567 338 613
b 568 338 1102
b 569 339 614
b 570 339 1189
b 571 1189 1190
b 572 340
b 573 341 785
b 574 341 1265
b 575 1265 1266
b 576 342 1550
b 577 1549 1550
b 578 1550
b 579 343
b 580 344
b 581 345 1519
b 582 346 1520
b 583 347 633
b 584 348 490
b 585 349
b 586 350 1607
b 587 351 1608
b 588 352
b 589 353 507
b 590 354 508
b 591 355
b 592 1103 1104
b 593 356 1104
b 594 356 1278
b 595 357 667
b 596 358
b 597 359
b 598 360 1030
b 599 361 967
b 600 362 685
b 601 363 686
b 602 364 1363
b 603 365 1364
b 604 366
b 605 367
b 606 369 1243
b 607 370
b 608 371
b 609 372 578
b 610 372 887
b 611 373 1223
b 612 373 1697
b 613 374 1599
b 614 375 565
b 615 376 540
b 616 376 1660
b 617 1659 1660
b 618 1660
b 619 377 616
b 620 615 616
b 621 616
b 622 378 634
b 623 378 1154
b 624 379 921
b 625 921 922
b 626 380 886
b 627 381 1067
b 628 382 1069
b 629 382 1388
b 630 383 1070
b 631 384
b 632 385 874
b 633 385 1677
b 634 1677 1678
b 635 386 781
b 636 387
b 637 388
b 638 389 900
b 639 390
b 640 391 1225
b 641 391 1461
b 642 393 1151
b 643 393 1228
b 644 392 1226
b 645 392 1227
b 646 1227 1228
b 647 1228
b 648 394 1152
b 649 394 971
b 650 971 972
b 651 395 972
b 652 395 1665
b 653 396 807
b 654 397
b 655 398 1528
b 656 399 592
b 657 400 992
b 658 400 1630
b 659 401 993
b 660 401 1449
b 661 1449 1450
b 662 402 1094
b 663 1093 1094
b 664 1094
b 665 403 675
b 666 675 676
b 667 404 1224
b 668 404 1615
b 669 405 1631
b 670 406 845
b 671 406 1176
b 672 407
b 673 408 516
b 674 408 1054
b 675 409 1477
b 676 410
b 677 411
b 678 412 693
b 679 412 856
b 680 855 856
b 681 856
b 682 413 694
b 683 1143 1144
b 684 413 1143
b 685 413 1463
b 686 1463 1464
b 687 414
b 688 585 586
b 689 415 585
b 690 415 1480
b 691 416 1465
b 692 417 1466
b 693 1465 1466
b 694 1466
b 695 418 492
b 696 418 1654
b 697 419 610
b 698 609 610
b 699 610
b 700 420 802
b 701 801 802
b 702 802
b 703 421 1105
b 704 422 1245
b 705 422 1462
b 706 423
b 707 424 975
b 708 975 976
b 709 425 517
b 710 426 541
b 711 427 635
b 712 428
b 713 429
b 714 430 816
b 715 430 1290
b 716 1289 1290
b 717 1290
b 718 431 977
b 719 977 978
b 720 432 978
b 721 432 1565
b 722 433 1699
b 723 434
b 724 435 791
b 725 791 792
b 726 436 792
b 727 436 1632
b 728 437
b 729 438
b 730 439 1258
b 731 1257 1258
b 732 1258
b 733 725 726
b 734 440 726
b 735 440 1291
b 736 441
b 737 442 1166
b 738 442 1329
b 739 442 1538
b 740 443
b 741 444
b 742 445 1667
b 743 446 559
b 744 446 1668
b 745 447 560
b 746 448 1701
b 747 449 1702
b 748 450 898
b 749 451
b 750 453
b 751 454
b 752 455 456
b 753 457
b 754 460
b 755 463
b 756 464
b 757 465
b 758 466
b 759 470
b 760 472
b 761 475 476
b 762 477
b 763 478
b 764 479
b 765 483
b 766 484
b 767 485
b 768 486
b 769 487
b 770 488
b 771 489
b 772 491
b 773 493
b 774 497
b 775 499
b 776 501
b 777 502
b 778 503
b 779 505
b 780 511
b 781 512
b 782 513
b 783 514
b 784 515
b 785 518
b 786 519
b 787 520
b 788 522
b 789 523
b 790 524
b 791 525
b 792 527
b 793 528
b 794 529 530
b 795 531
b 796 532
b 797 533
b 798 534
b 799 536
b 800 537 538
b 801 539
b 802 542
b 803 543
b 804 544
b 805 545
b 806 546
b 807 547
b 808 548
b 809 549
b 810 550
b 811 555 556
b 812 557
b 813 558
b 814 561
b 815 562
b 816 563
b 817 564
b 818 566
b 819 567 568
b 820 569
b 821 570
b 822 571
b 823 572
b 824 574
b 825 575
b 826 576
b 827 577
b 828 581
b 829 582
b 830 584
b 831 588
b 832 591
b 833 593 594
b 834 596
b 835 597
b 836 598
b 837 601
b 838 602
b 839 603 604
b 840 607 608
b 841 611 612
b 842 617 618
b 843 619
b 844 621
b 845 622
b 846 623 624
b 847 628
b 848 629
b 849 631 632
b 850 636
b 851 637
b 852 638
b 853 641
b 854 642
b 855 645
b 856 646
b 857 647
b 858 648
b 859 649 650
b 860 651 652
b 861 655
b 862 656
b 863 659
b 864 660
b 865 661
b 866 663
b 867 664
b 868 665
b 869 666
b 870 668
b 871 669 670
b 872 671
b 873 672
b 874 681
b 875 683
b 876 684
b 877 687 688
b 878 689
b 879 695 696
b 880 697
b 881 698
b 882 699
b 883 700
b 884 704
b 885 705
b 886 707
b 887 708
b 888 711
b 889 713
b 890 715 716
b 891 717 718
b 892 719
b 893 720
b 894 724
b 895 728
b 896 730
b 897 731
b 898 732
b 899 734
b 900 737
b 901 738
b 902 739
b 903 740
b 904 741
b 905 742
b 906 746
b 907 751 752
b 908 758
b 909 761
b 910 762
b 911 763
b 912 764
b 913 766
b 914 767
b 915 769
b 916 770
b 917 771
b 918 772
b 919 773 774
b 920 775
b 921 776
b 922 777 778
b 923 782
b 924 783
b 925 784
b 926 786
b 927 787
b 928 788
b 929 789
b 930 790
b 931 793 794
b 932 795 796
b 933 797
b 934 798
b 935 800
b 936 803
b 937 804
b 938 805
b 939 806
b 940 808
b 941 809
b 942 810
b 943 811
b 944 812
b 945 813
b 946 814
b 947 815
b 948 817
b 949 821 822
b 950 823
b 951 825
b 952 826
b 953 831
b 954 834
b 955 835
b 956 836
b 957 838
b 958 839
b 959 840
b 960 841
b 961 842
b 962 844
b 963 846
b 964 847
b 965 848
b 966 849
b 967 850
b 968 853
b 969 854
b 970 857
b 971 858
b 972 859 860
b 973 861
b 974 862
b 975 864
b 976 865 866
b 977 867
b 978 869
b 979 870
b 980 871
b 981 872
b 982 873
b 983 876
b 984 877
b 985 878
b 986 879
b 987 881
b 988 882
b 989 883
b 990 884
b 991 885
b 992 888
b 993 890
b 994 892
b 995 893
b 996 894
b 997 895
b 998 896
b 999 897
b 1000 899
b 1001 901
b 1002 902
b 1003 903 904
b 1004 905
b 1005 909
b 1006 910
b 1007 913
b 1008 917
b 1009 919 920
b 1010 923
b 1011 924
b 1012 928
b 1013 929
b 1014 930
b 1015 931 932
b 1016 933 934
b 1017 936
b 1018 937
b 1019 938
b 1020 939 940
b 1021 941 942
b 1022 943 944
b 1023 945
b 1024 947 948
b 1025 953
b 1026 955
b 1027 956
b 1028 957
b 1029 958
b 1030 961
b 1031 963 964
b 1032 965
b 1033 966
b 1034 968
b 1035 969 970
b 1036 973 974
b 1037 979
b 1038 980
b 1039 983
b 1040 984
b 1041 985
b 1042 986
b 1043 989 990
b 1044 991
b 1045 994
b 1046 995
b 1047 996
b 1048 1001
b 1049 1002
b 1050 1003
b 1051 1004
b 1052 1005
b 1053 1006
b 1054 1007
b 1055 1008
b 1056 1009 1010
b 1057 1011
b 1058 1012
b 1059 1015
b 1060 1019
b 1061 1020
b 1062 1022
b 1063 1023
b 1064 1029
b 1065 1035
b 1066 1036
b 1067 1037
b 1068 1038
b 1069 1039
b 1070 1041
b 1071 1042
b 1072 1043
b 1073 1044
b 1074 1045
b 1075 1046
b 1076 1047
b 1077 1048
b 1078 1051 1052
b 1079 1053
b 1080 1057
b 1081 1059
b 1082 1060
b 1083 1065 1066
b 1084 1068
b 1085 1074
b 1086 1075
b 1087 1076
b 1088 1078
b 1089 1080
b 1090 1083
b 1091 1084
b 1092 1087
b 1093 1089
b 1094 1090
b 1095 1091
b 1096 1092
b 1097 1097
b 1098 1098
b 1099 1099
b 1100 1100
b 1101 1106
b 1102 1107
b 1103 1108
b 1104 1113
b 1105 1115
b 1106 1116
b 1107 1118
b 1108 1119
b 1109 1120
b 1110 1123 1124
b 1111 1125
b 1112 1126
b 1113 1127
b 1114 1128
b 1115 1130
b 1116 1131
b 1117 1132
b 1118 1133
b 1119 1134
b 1120 1135 1136
b 1121 1137
b 1122 1138
b 1123 1139 1140
b 1124 1141
b 1125 1142
b 1126 1145
b 1127 1146
b 1128 1150
b 1129 1153
b 1130 1157
b 1131 1158
b 1132 1159
b 1133 1160
b 1134 1163
b 1135 1164
b 1136 1165
b 1137 1167
b 1138 1169 1170
b 1139 1171 1172
b 1140 1173
b 1141 1174
b 1142 1175
b 1143 1177 1178
b 1144 1183
b 1145 1184
b 1146 1185
b 1147 1191 1192
b 1148 1196
b 1149 1197
b 1150 1198
b 1151 1199 1200
b 1152 1201
b 1153 1204
b 1154 1208
b 1155 1209
b 1156 1213 1214
b 1157 1217 1218
b 1158 1219
b 1159 1220
b 1160 1222
b 1161 1233 1234
b 1162 1237
b 1163 1238
b 1164 1240
b 1165 1241
b 1166 1242
b 1167 1244
b 1168 1246
b 1169 1247
b 1170 1249
b 1171 1252
b 1172 1255
b 1173 1256
b 1174 1261 1262
b 1175 1263
b 1176 1267 1268
b 1177 1270
b 1178 1272
b 1179 1275
b 1180 1276
b 1181 1277
b 1182 1282
b 1183 1283
b 1184 1284
b 1185 1285
b 1186 1286
b 1187 1287
b 1188 1288
b 1189 1292
b 1190 1295 1296
b 1191 1298
b 1192 1299
b 1193 1300
b 1194 1301 1302
b 1195 1303
b 1196 1305
b 1197 1306
b 1198 1307
b 1199 1308
b 1200 1309
b 1201 1310
b 1202 1311
b 1203 1312
b 1204 1313
b 1205 1314
b 1206 1315
b 1207 1316
b 1208 1317
b 1209 1318
b 1210 1319
b 1211 1320
b 1212 1321 1322
b 1213 1323
b 1214 1324
b 1215 1325
b 1216 1326
b 1217 1327 1328
b 1218 1330
b 1219 1333
b 1220 1336
b 1221 1337
b 1222 1338
b 1223 1339
b 1224 1340
b 1225 1341
b 1226 1342
b 1227 1343
b 1228 1344
b 1229 1353 1354
b 1230 1356
b 1231 1357
b 1232 1365
b 1233 1367
b 1234 1368
b 1235 1369
b 1236 1370
b 1237 1373 1374
b 1238 1375 1376
b 1239 1378
b 1240 1379
b 1241 1380
b 1242 1381
b 1243 1382
b 1244 1383
b 1245 1384
b 1246 1387
b 1247 1389 1390
b 1248 1391 1392
b 1249 1395
b 1250 1399
b 1251 1400
b 1252 1401
b 1253 1402
b 1254 1405
b 1255 1406
b 1256 1407
b 1257 1408
b 1258 1409
b 1259 1411
b 1260 1412
b 1261 1413
b 1262 1414
b 1263 1419
b 1264 1422
b 1265 1426
b 1266 1427
b 1267 1429 1430
b 1268 1431
b 1269 1432
b 1270 1435 1436
b 1271 1437 1438
b 1272 1440
b 1273 1441
b 1274 1442
b 1275 1443 1444
b 1276 1445
b 1277 1451
b 1278 1452
b 1279 1453
b 1280 1457
b 1281 1458
b 1282 1460
b 1283 1467 1468
b 1284 1470
b 1285 1472
b 1286 1476
b 1287 1478
b 1288 1479
b 1289 1481
b 1290 1482
b 1291 1484
b 1292 1485
b 1293 1487 1488
b 1294 1491
b 1295 1493
b 1296 1494
b 1297 1495 1496
b 1298 1497
b 1299 1498
b 1300 1501
b 1301 1503
b 1302 1504
b 1303 1507
b 1304 1508
b 1305 1509
b 1306 1510
b 1307 1511
b 1308 1512
b 1309 1513 1514
b 1310 1515
b 1311 1516
b 1312 1517
b 1313 1518
b 1314 1521
b 1315 1522
b 1316 1523
b 1317 1524
b 1318 1525 1526
b 1319 1527
b 1320 1531 1532
b 1321 1533
b 1322 1534
b 1323 1535
b 1324 1536
b 1325 1537
b 1326 1541
b 1327 1542
b 1328 1543
b 1329 1544
b 1330 1545 1546
b 1331 1547
b 1332 1548
b 1333 1552
b 1334 1554
b 1335 1557
b 1336 1558
b 1337 1559
b 1338 1566
b 1339 1571
b 1340 1575
b 1341 1576
b 1342 1580
b 1343 1581 1582
b 1344 1583 1584
b 1345 1585
b 1346 1587
b 1347 1588
b 1348 1589
b 1349 1590
b 1350 1591
b 1351 1592
b 1352 1596
b 1353 1597 1598
b 1354 1600
b 1355 1601
b 1356 1602
b 1357 1605
b 1358 1606
b 1359 1609
b 1360 1610
b 1361 1613 1614
b 1362 1616
b 1363 1619
b 1364 1629
b 1365 1636
b 1366 1639 1640
b 1367 1641 1642
b 1368 1643 1644
b 1369 1646
b 1370 1647
b 1371 1651
b 1372 1652
b 1373 1653
b 1374 1657
b 1375 1658
b 1376 1662
b 1377 1663
b 1378 1664
b 1379 1666
b 1380 1669 1670
b 1381 1672
b 1382 1675
b 1383 1679
b 1384 1680
b 1385 1682
b 1386 1683
b 1387 1684
b 1388 1685 1686
b 1389 1687
b 1390 1689
b 1391 1690
b 1392 1691 1692
b 1393 1693
b 1394 1694
b 1395 1695
b 1396 1696
b 1397 1698
b 1398 1700
b 1399 1703
b 1400 1705
b 1401 1707 1708
b 1402 1709
b 1403 1710
b 1404 1711
b 1405 1717
b 1406 1719
b 1407 1720
b 1408 1723
b 1409 1724
b 1410 1725
b 1411 1726
b 1412 1728
b 1413 1729
b 1414 1730
b 1415 1732
b 1416 1735
b 1417 1736
b 1418 1737 1738
b 1419 1740
1 2
1 3
1 6
1 7
1 9
1 12
1 13
1 14
1 15
1 16
1 19
1 24
1 25
1 26
1 27
1 28
1 29
1 30
1 31
1 35
1 36
1 37
1 38
1 39
1 40
1 41
1 42
1 43
1 46
1 50
1 52
1 54
1 55
1 59
1 60
1 62
1 63
1 64
1 65
1 66
1 67
1 70
1 71
1 73
1 74
1 77
1 79
1 80
1 81
1 82
1 84
1 85
1 87
1 90
1 91
1 92
1 93
1 94
1 95
1 96
1 97
1 99
1 100
1 101
1 102
1 103
1 107
1 108
1 112
1 113
1 115
1 118
1 121
1 122
1 123
1 124
1 130
1 131
1 132
1 135
1 139
1 140
1 144
1 145
1 146
1 147
1 149
1 150
1 152
1 154
1 155
1 156
1 157
1 159
1 160
1 161
1 163
1 165
1 169
1 170
1 171
1 172
1 176
1 177
1 178
1 181
1 184
1 185
1 188
1 190
1 191
1 192
1 193
1 197
1 198
1 199
1 200
1 201
1 203
1 204
1 205
1 206
1 215
1 219
1 224
1 226
1 232
1 233
1 234
1 235
1 236
1 238
1 239
1 240
1 241
1 242
1 243
1 244
1 245
1 247
1 248
1 249
1 251
1 252
1 253
1 254
1 255
1 256
1 257
1 259
1 260
1 261
1 262
1 263
1 264
1 265
1 268
1 271
1 272
1 275
1 276
1 278
1 279
1 282
1 290
1 292
1 293
1 296
1 301
1 302
1 303
1 305
1 306
1 308
1 309
1 313
1 316
1 317
1 318
1 322
1 323
1 324
1 325
1 328
1 329
1 330
1 333
1 335
1 336
1 337
1 340
1 341
1 342
1 343
1 344
1 345
1 347
1 348
1 350
1 351
1 352
1 353
1 354
1 357
1 358
1 359
1 360
1 361
1 363
1 364
1 365
1 371
1 375
1 378
1 380
1 381
1 382
1 383
1 384
1 385
1 386
1 387
1 388
1 389
1 390
1 391
1 392
1 393
1 394
1 397
1 398
1 399
1 403
1 407
1 409
1 410
1 412
1 414
1 417
1 418
1 421
1 422
1 423
1 426
1 429
1 430
1 431
1 434
1 435
1 439
1 444
1 445
1 448
1 450
1 451
1 452
1 454
1 455
1 456
1 457
1 458
1 464
1 465
1 466
1 467
1 468
1 469
1 471
1 472
1 473
1 474
1 475
1 478
1 479
1 482
1 483
1 489
1 491
1 492
1 493
1 494
1 495
1 498
1 500
1 504
1 505
1 508
1 510
1 511
1 512
1 513
1 516
1 520
1 523
1 524
1 525
1 526
1 527
1 529
1 531
1 532
1 533
1 536
1 537
1 539
1 541
1 542
1 548
1 549
1 552
1 553
1 554
1 556
1 557
1 561
1 562
1 567
1 569
1 572
1 573
1 576
1 579
1 580
1 581
1 582
1 583
1 584
1 585
1 586
1 587
1 588
1 589
1 590
1 591
1 592
1 595
1 596
1 597
1 598
1 599
1 600
1 601
1 602
1 603
1 604
1 605
1 606
1 607
1 608
1 609
1 611
1 613
1 614
1 615
1 619
1 622
1 624
1 626
1 627
1 628
1 630
1 631
1 632
1 635
1 636
1 637
1 638
1 639
1 640
1 642
1 648
1 653
1 654
1 655
1 656
1 657
1 659
1 662
1 665
1 667
1 669
1 670
1 672
1 673
1 675
1 676
1 677
1 678
1 682
1 687
1 688
1 691
1 695
1 697
1 700
1 703
1 704
1 706
1 707
1 709
1 710
1 711
1 712
1 713
1 714
1 718
1 722
1 723
1 724
1 728
1 729
1 730
1 733
1 736
1 737
1 740
1 741
1 742
1 743
1 745
1 746
1 747
1 748
1 749
1 750
1 751
1 752
1 753
1 754
1 755
1 756
1 757
1 758
1 759
1 760
1 761
1 762
1 763
1 764
1 765
1 766
1 767
1 768
1 769
1 770
1 771
1 772
1 773
1 774
1 775
1 776
1 777
1 778
1 779
1 780
1 781
1 782
1 783
1 784
1 785
1 786
1 787
1 788
1 789
1 790
1 791
1 792
1 793
1 794
1 795
1 796
1 797
1 798
1 799
1 800
1 801
1 802
1 803
1 804
1 805
1 806
1 807
1 808
1 809
1 810
1 811
1 812
1 813
1 814
1 815
1 816
1 817
1 818
1 819
1 820
1 821
1 822
1 823
1 824
1 825
1 826
1 827
1 828
1 829
1 830
1 831
1 832
1 833
1 834
1 835
1 836
1 837
1 838
1 839
1 840
1 841
1 842
1 843
1 844
1 845
1 846
1 847
1 848
1 849
1 850
1 851
1 852
1 853
1 854
1 855
1 856
1 857
1 858
1 859
1 860
1 861
1 862
1 863
1 864
1 865
1 866
1 867
1 868
1 869
1 870
1 871
1 872
1 873
1 874
1 875
1 876
1 877
1 878
1 879
1 880
1 881
1 882
1 883
1 884
1 885
1 886
1 887
1 888
1 889
1 890
1 891
1 892
1 893
1 894
1 895
1 896
1 897
1 898
1 899
1 900
1 901
1 902
1 903
1 904
1 905
1 906
1 907
1 908
1 909
1 910
1 911
1 912
1 913
1 914
1 915
1 916
1 917
1 918
1 919
1 920
1 921
1 922
1 923
1 924
1 925
1 926
1 927
1 928
1 929
1 930
1 931
1 932
1 933
1 934
1 935
1 936
1 937
1 938
1 939
1 940
1 941
1 942
1 943
1 944
1 945
1 946
1 947
1 948
1 949
1 950
1 951
1 952
1 953
1 954
1 955
1 956
1 957
1 958
1 959
1 960
1 961
1 962
1 963
1 964
1 965
1 966
1 967
1 968
1 969
1 970
1 971
1 972
1 973
1 974
1 975
1 976
1 977
1 978
1 979
1 980
1 981
1 982
1 983
1 984
1 985
1 986
1 987
1 988
1 989
1 990
1 991
1 992
1 993
1 994
1 995
1 996
1 997
1 998
1 999
1 1000
1 1001
1 1002
1 1003
1 1004
1 1005
1 1006
1 1007
1 1008
1 1009
1 1010
1 1011
1 1012
1 1013
1 1014
1 1015
1 1016
1 1017
1 1018
1 1019
1 1020
1 1021
1 1022
1 1023
1 1024
1 1025
1 1026
1 1027
1 1028
1 1029
1 1030
1 1031
1 1032
1 1033
1 1034
1 1035
1 1036
1 1037
1 1038
1 1039
1 1040
1 1041
1 1042
1 1043
1 1044
1 1045
1 1046
1 1047
1 1048
1 1049
1 1050
1 1051
1 1052
1 1053
1 1054
1 1055
1 1056
1 1057
1 1058
1 1059
1 1060
1 1061
1 1062
1 1063
1 1064
1 1065
1 1066
1 1067
1 1068
1 1069
1 1070
1 1071
1 1072
1 1073
1 1074
1 1075
1 1076
1 1077
1 1078
1 1079
1 1080
1 1081
1 1082
1 1083
1 1084
1 1085
1 1086
1 1087
1 1088
1 1089
1 1090
1 1091
1 1092
1 1093
1 1094
1 1095
1 1096
1 1097
1 1098
1 1099
1 1100
1 1101
1 1102
1 1103
1 1104
1 1105
1 1106
1 1107
1 1108
1 1109
1 1110
1 1111
1 1112
1 1113
1 1114
1 1115
1 1116
1 1117
1 1118
1 1119
1 1120
1 1121
1 1122
1 1123
1 1124
1 1125
1 1126
1 1127
1 1128
1 1129
1 1130
1 1131
1 1132
1 1133
1 1134
1 1135
1 1136
1 1137
1 1138
1 1139
1 1140
1 1141
1 1142
1 1143
1 1144
1 1145
1 1146
1 1147
1 1148
1 1149
1 1150
1 1151
1 1152
1 1153
1 1154
1 1155
1 1156
1 1157
1 1158
1 1159
1 1160
1 1161
1 1162
1 1163
1 1164
1 1165
1 1166
1 1167
1 1168
1 1169
1 1170
1 1171
1 1172
1 1173
1 1174
1 1175
1 1176
1 1177
1 1178
1 1179
1 1180
1 1181
1 1182
1 1183
1 1184
1 1185
1 1186
1 1187
1 1188
1 1189
1 1190
1 1191
1 1192
1 1193
1 1194
1 1195
1 1196
1 1197
1 1198
1 1199
1 1200
1 1201
1 1202
1 1203
1 1204
1 1205
1 1206
1 1207
1 1208
1 1209
1 1210
1 1211
1 1212
1 1213
1 1214
1 1215
1 1216
1 1217
1 1218
1 1219
1 1220
1 1221
1 1222
1 1223
1 1224
1 1225
1 1226
1 1227
1 1228
1 1229
1 1230
1 1231
1 1232
1 1233
1 1234
1 1235
1 1236
1 1237
1 1238
1 1239
1 1240
1 1241
1 1242
1 1243
1 1244
1 1245
1 1246
1 1247
1 1248
1 1249
1 1250
1 1251
1 1252
1 1253
1 1254
1 1255
1 1256
1 1257
1 1258
1 1259
1 1260
1 1261
1 1262
1 1263
1 1264
1 1265
1 1266
1 1267
1 1268
1 1269
1 1270
1 1271
1 1272
1 1273
1 1274
1 1275
1 1276
1 1277
1 1278
1 1279
1 1280
1 1281
1 1282
1 1283
1 1284
1 1285
1 1286
1 1287
1 1288
1 1289
1 1290
1 1291
1 1292
1 1293
1 1294
1 1295
1 1296
1 1297
1 1298
1 1299
1 1300
1 1301
1 1302
1 1303
1 1304
1 1305
1 1306
1 1307
1 1308
1 1309
1 1310
1 1311
1 1312
1 1313
1 1314
1 1315
1 1316
1 1317
1 1318
1 1319
1 1320
1 1321
1 1322
1 1323
1 1324
1 1325
1 1326
1 1327
1 1328
1 1329
1 1330
1 1331
1 1332
1 1333
1 1334
1 1335
1 1336
1 1337
1 1338
1 1339
1 1340
1 1341
1 1342
1 1343
1 1344
1 1345
1 1346
1 1347
1 1348
1 1349
1 1350
1 1351
1 1352
1 1353
1 1354
1 1355
1 1356
1 1357
1 1358
1 1359
1 1360
1 1361
1 1362
1 1363
1 1364
1 1365
1 1366
1 1367
1 1368
1 1369
1 1370
1 1371
1 1372
1 1373
1 1374
1 1375
1 1376
1 1377
1 1378
1 1379
1 1380
1 1381
1 1382
1 1383
1 1384
1 1385
1 1386
1 1387
1 1388
1 1389
1 1390
1 1391
1 1392
1 1393
1 1394
1 1395
1 1396
1 1397
1 1398
1 1399
1 1400
1 1401
1 1402
1 1403
1 1404
1 1405
1 1406
1 1407
1 1408
1 1409
1 1410
1 1411
1 1412
1 1413
1 1414
1 1415
1 1416
1 1417
1 1418
1 1419
3 5
4 5
7 8
9 10
10 11
16 18
17 18
19 20
20 21
21 22
22 23
31 32
32 33
33 34
43 44
44 45
46 48
47 49
48 49
50 51
52 53
55 56
56 57
57 58
60 61
67 68
68 69
71 72
74 76
75 76
77 78
82 83
85 86
87 88
88 89
97 98
103 104
104 106
105 106
108 110
109 111
110 111
113 114
115 116
116 117
118 119
119 120
124 125
125 129
126 127
127 128
128 129
132 133
133 134
135 136
136 138
137 138
140 141
141 142
142 143
147 148
150 151
152 153
157 158
161 162
163 164
165 168
166 167
167 168
172 173
173 175
174 175
178 180
179 180
181 182
182 183
185 187
186 187
188 189
193 195
194 196
195 196
201 202
206 207
207 208
208 209
209 212
210 211
211 212
212 214
213 214
215 217
216 218
217 218
219 222
220 221
221 223
222 223
224 225
226 231
227 228
228 229
229 230
230 231
236 237
245 246
249 250
257 258
265 267
266 267
268 270
269 270
272 273
273 274
276 277
279 281
280 281
282 283
283 289
284 285
285 286
286 287
287 288
288 289
290 291
293 295
294 295
296 299
297 298
298 299
299 300
303 304
306 307
309 311
310 312
311 312
313 315
314 315
318 319
319 321
320 321
325 327
326 327
330 332
331 332
333 334
337 339
338 339
345 346
348 349
354 356
355 356
361 362
365 366
366 367
367 368
368 369
369 370
371 372
372 374
373 374
375 376
376 377
378 379
394 395
395 396
399 401
400 402
401 402
403 404
404 406
405 406
407 408
410 411
412 413
414 415
415 416
418 419
419 420
423 424
424 425
426 427
427 428
431 433
432 433
435 436
436 437
437 438
439 440
440 441
441 443
442 443
445 446
446 447
448 449
452 453
458 462
459 460
460 461
461 463
462 463
469 470
475 477
476 477
479 480
480 481
483 484
484 485
485 486
486 487
487 488
489 490
495 496
496 497
498 499
500 502
501 503
502 503
505 507
506 507
508 509
513 515
514 515
516 518
517 519
518 519
520 521
521 522
527 528
529 530
533 535
534 535
537 538
539 540
542 545
543 544
544 545
545 547
546 547
549 551
550 551
554 555
557 559
558 560
559 560
562 563
563 564
564 566
565 566
567 568
569 570
570 571
573 574
574 575
576 578
577 578
592 593
593 594
609 610
611 612
615 616
616 618
617 618
619 621
620 621
622 623
624 625
628 629
632 633
633 634
640 641
642 643
643 647
644 645
645 646
646 647
648 649
649 650
650 651
651 652
657 658
659 660
660 661
662 664
663 664
665 666
667 668
670 671
673 674
678 679
679 681
680 681
682 685
683 684
684 685
685 686
688 689
689 690
691 693
692 694
693 694
695 696
697 699
698 699
700 702
701 702
704 705
707 708
714 715
715 717
716 717
718 719
719 720
720 721
724 725
725 726
726 727
730 732
731 732
733 734
734 735
737 739
738 739
743 744
